knapPI_6_1000_1000_543
n 1000
c 466955
z 466955
time 0.2
1,322,322,1
2,899,899,1
3,684,684,1
4,842,842,1
5,23,23,1
6,86,86,1
7,916,916,1
8,227,227,1
9,962,962,1
10,967,967,1
11,13,13,1
12,863,863,1
13,177,177,1
14,183,183,1
15,121,121,1
16,791,791,1
17,173,173,1
18,909,909,1
19,935,935,1
20,37,37,1
21,606,606,1
22,989,989,1
23,853,853,1
24,100,100,1
25,665,665,1
26,687,687,1
27,718,718,1
28,662,662,1
29,296,296,1
30,156,156,1
31,616,616,1
32,203,203,1
33,445,445,1
34,578,578,1
35,363,363,1
36,158,158,1
37,589,589,1
38,10,10,1
39,197,197,1
40,210,210,1
41,648,648,1
42,78,78,1
43,470,470,1
44,886,886,1
45,458,458,1
46,187,187,1
47,143,143,1
48,26,26,1
49,722,722,1
50,614,614,1
51,329,329,1
52,471,471,1
53,169,169,1
54,465,465,1
55,946,946,1
56,674,674,1
57,321,321,1
58,686,686,1
59,404,404,1
60,91,91,1
61,182,182,1
62,648,648,1
63,240,240,1
64,301,301,1
65,83,83,1
66,911,911,1
67,114,114,1
68,110,110,1
69,715,715,1
70,829,829,1
71,248,248,1
72,954,954,1
73,158,158,1
74,248,248,1
75,320,320,1
76,78,78,1
77,1,1,1
78,489,489,1
79,643,643,1
80,889,889,1
81,533,533,1
82,156,156,1
83,521,521,1
84,231,231,1
85,776,776,1
86,318,318,1
87,82,82,1
88,557,557,1
89,277,277,1
90,664,664,1
91,108,108,1
92,999,999,1
93,206,206,1
94,220,220,1
95,990,990,1
96,868,868,1
97,815,815,1
98,458,458,1
99,859,859,1
100,222,222,1
101,252,252,1
102,452,452,1
103,585,585,1
104,380,380,1
105,450,450,1
106,555,555,1
107,655,655,1
108,828,828,1
109,926,926,1
110,978,978,1
111,747,747,1
112,122,122,1
113,136,136,1
114,423,423,1
115,146,146,1
116,234,234,1
117,14,14,1
118,348,348,1
119,308,308,1
120,973,973,1
121,113,113,1
122,111,111,1
123,566,566,1
124,695,695,1
125,401,401,1
126,602,602,1
127,105,105,1
128,775,775,1
129,586,586,1
130,8,8,1
131,273,273,1
132,718,718,1
133,899,899,1
134,694,694,1
135,333,333,1
136,97,97,1
137,558,558,1
138,57,57,1
139,918,918,1
140,271,271,1
141,938,938,1
142,716,716,1
143,378,378,1
144,700,700,1
145,962,962,1
146,978,978,1
147,368,368,1
148,898,898,1
149,664,664,1
150,56,56,1
151,859,859,1
152,639,639,1
153,571,571,1
154,352,352,1
155,881,881,1
156,294,294,1
157,961,961,1
158,402,402,1
159,256,256,1
160,809,809,1
161,817,817,1
162,813,813,1
163,425,425,1
164,387,387,1
165,943,943,1
166,623,623,1
167,194,194,1
168,225,225,1
169,666,666,1
170,577,577,1
171,797,797,1
172,713,713,1
173,541,541,1
174,607,607,1
175,552,552,1
176,979,979,1
177,548,548,1
178,614,614,1
179,155,155,1
180,101,101,1
181,72,72,1
182,817,817,1
183,278,278,1
184,858,858,1
185,776,776,1
186,636,636,1
187,127,127,1
188,724,724,1
189,19,19,1
190,652,652,1
191,851,851,1
192,922,922,1
193,698,698,1
194,271,271,1
195,382,382,1
196,218,218,1
197,851,851,1
198,463,463,1
199,858,858,1
200,734,734,1
201,395,395,1
202,928,928,1
203,175,175,1
204,759,759,1
205,571,571,1
206,94,94,1
207,513,513,1
208,611,611,1
209,470,470,1
210,392,392,1
211,474,474,1
212,758,758,1
213,243,243,1
214,615,615,1
215,570,570,1
216,886,886,1
217,998,998,1
218,335,335,1
219,449,449,1
220,323,323,1
221,296,296,1
222,50,50,1
223,380,380,1
224,24,24,1
225,51,51,1
226,194,194,1
227,72,72,1
228,44,44,1
229,289,289,1
230,863,863,1
231,386,386,1
232,471,471,1
233,836,836,1
234,216,216,1
235,320,320,1
236,468,468,1
237,630,630,1
238,229,229,1
239,88,88,1
240,563,563,1
241,381,381,1
242,320,320,1
243,654,654,1
244,958,958,1
245,562,562,1
246,648,648,1
247,910,910,1
248,965,965,1
249,12,12,1
250,163,163,1
251,964,964,1
252,124,124,1
253,923,923,1
254,822,822,1
255,951,951,1
256,658,658,1
257,718,718,1
258,24,24,1
259,81,81,1
260,115,115,1
261,948,948,1
262,195,195,1
263,382,382,1
264,817,817,1
265,773,773,1
266,837,837,1
267,214,214,1
268,873,873,1
269,15,15,1
270,651,651,1
271,292,292,1
272,539,539,1
273,183,183,1
274,361,361,1
275,168,168,1
276,35,35,1
277,982,982,1
278,62,62,1
279,93,93,1
280,18,18,1
281,988,988,1
282,131,131,1
283,176,176,1
284,985,985,1
285,689,689,1
286,810,810,1
287,211,211,1
288,917,917,1
289,584,584,1
290,233,233,1
291,621,621,1
292,18,18,1
293,214,214,1
294,92,92,1
295,75,75,1
296,902,902,1
297,318,318,1
298,640,640,1
299,23,23,1
300,867,867,1
301,990,990,1
302,36,36,1
303,737,737,1
304,240,240,1
305,634,634,1
306,79,79,1
307,765,765,1
308,360,360,1
309,576,576,1
310,164,164,1
311,74,74,1
312,646,646,1
313,54,54,1
314,565,565,1
315,58,58,1
316,992,992,1
317,771,771,1
318,133,133,1
319,665,665,1
320,118,118,1
321,740,740,1
322,119,119,1
323,148,148,1
324,483,483,1
325,173,173,1
326,934,934,1
327,561,561,1
328,605,605,1
329,996,996,1
330,505,505,1
331,348,348,1
332,340,340,1
333,195,195,1
334,748,748,1
335,75,75,1
336,910,910,1
337,755,755,1
338,931,931,1
339,278,278,1
340,198,198,1
341,422,422,1
342,319,319,1
343,826,826,1
344,399,399,1
345,352,352,1
346,93,93,1
347,570,570,1
348,978,978,1
349,387,387,1
350,207,207,1
351,885,885,1
352,134,134,1
353,980,980,1
354,700,700,1
355,508,508,1
356,103,103,1
357,279,279,1
358,500,500,1
359,663,663,1
360,4,4,1
361,466,466,1
362,785,785,1
363,532,532,1
364,525,525,1
365,874,874,1
366,902,902,1
367,313,313,1
368,133,133,1
369,196,196,1
370,150,150,1
371,464,464,1
372,349,349,1
373,563,563,1
374,882,882,1
375,611,611,1
376,46,46,1
377,797,797,1
378,774,774,1
379,862,862,1
380,340,340,1
381,289,289,1
382,288,288,1
383,902,902,1
384,824,824,1
385,421,421,1
386,461,461,1
387,769,769,1
388,536,536,1
389,458,458,1
390,84,84,1
391,60,60,1
392,956,956,1
393,492,492,1
394,514,514,1
395,654,654,1
396,574,574,1
397,358,358,1
398,790,790,1
399,555,555,1
400,840,840,1
401,360,360,1
402,981,981,1
403,73,73,1
404,548,548,1
405,17,17,1
406,684,684,1
407,764,764,1
408,809,809,1
409,927,927,1
410,607,607,1
411,200,200,1
412,203,203,1
413,322,322,1
414,61,61,1
415,348,348,1
416,731,731,1
417,764,764,1
418,448,448,1
419,434,434,1
420,618,618,1
421,955,955,1
422,617,617,1
423,904,904,1
424,127,127,1
425,842,842,1
426,624,624,1
427,552,552,1
428,673,673,1
429,713,713,1
430,509,509,1
431,297,297,1
432,568,568,1
433,290,290,1
434,432,432,1
435,250,250,1
436,669,669,1
437,290,290,1
438,585,585,1
439,4,4,1
440,495,495,1
441,480,480,1
442,382,382,1
443,653,653,1
444,934,934,1
445,283,283,1
446,925,925,1
447,259,259,1
448,301,301,1
449,702,702,1
450,292,292,1
451,361,361,1
452,845,845,1
453,182,182,1
454,927,927,1
455,685,685,1
456,741,741,1
457,794,794,1
458,432,432,1
459,98,98,1
460,92,92,1
461,977,977,1
462,846,846,1
463,621,621,1
464,666,666,1
465,866,866,1
466,400,400,1
467,548,548,1
468,339,339,1
469,534,534,1
470,750,750,1
471,821,821,1
472,828,828,1
473,379,379,1
474,639,639,1
475,341,341,1
476,67,67,1
477,451,451,1
478,50,50,1
479,518,518,1
480,175,175,1
481,691,691,1
482,492,492,1
483,599,599,1
484,968,968,1
485,246,246,1
486,884,884,1
487,77,77,1
488,493,493,1
489,791,791,1
490,981,981,1
491,461,461,1
492,526,526,1
493,827,827,1
494,388,388,1
495,953,953,1
496,41,41,1
497,416,416,1
498,100,100,1
499,697,697,1
500,541,541,1
501,864,864,1
502,947,947,1
503,411,411,1
504,857,857,1
505,721,721,1
506,889,889,1
507,443,443,1
508,70,70,1
509,638,638,1
510,3,3,1
511,614,614,1
512,72,72,1
513,103,103,1
514,761,761,1
515,896,896,1
516,335,335,1
517,464,464,1
518,289,289,1
519,884,884,1
520,588,588,1
521,96,96,1
522,593,593,1
523,500,500,1
524,427,427,1
525,95,95,1
526,701,701,1
527,187,187,1
528,47,47,1
529,265,265,1
530,471,471,1
531,87,87,1
532,496,496,1
533,380,380,1
534,710,710,1
535,242,242,1
536,95,95,1
537,222,222,1
538,194,194,1
539,4,4,1
540,280,280,1
541,884,884,1
542,123,123,1
543,223,223,1
544,491,491,1
545,565,565,1
546,758,758,1
547,700,700,1
548,125,125,1
549,321,321,1
550,107,107,1
551,645,645,1
552,928,928,1
553,269,269,1
554,710,710,1
555,667,667,1
556,809,809,1
557,569,569,1
558,612,612,1
559,213,213,1
560,854,854,1
561,379,379,1
562,778,778,1
563,949,949,1
564,758,758,1
565,955,955,1
566,900,900,1
567,623,623,1
568,369,369,1
569,700,700,1
570,312,312,1
571,334,334,1
572,216,216,1
573,286,286,1
574,26,26,1
575,608,608,1
576,522,522,1
577,745,745,1
578,725,725,1
579,699,699,1
580,559,559,1
581,710,710,1
582,80,80,1
583,910,910,1
584,364,364,1
585,785,785,1
586,526,526,1
587,691,691,1
588,411,411,1
589,136,136,1
590,500,500,1
591,990,990,1
592,408,408,1
593,403,403,1
594,358,358,1
595,681,681,1
596,587,587,1
597,737,737,1
598,861,861,1
599,108,108,1
600,321,321,1
601,646,646,1
602,457,457,1
603,144,144,1
604,75,75,1
605,503,503,1
606,278,278,1
607,997,997,1
608,47,47,1
609,624,624,1
610,921,921,1
611,501,501,1
612,52,52,1
613,862,862,1
614,976,976,1
615,80,80,1
616,821,821,1
617,902,902,1
618,377,377,1
619,892,892,1
620,627,627,1
621,547,547,1
622,287,287,1
623,450,450,1
624,650,650,1
625,271,271,1
626,181,181,1
627,123,123,1
628,897,897,1
629,271,271,1
630,923,923,1
631,783,783,1
632,987,987,1
633,886,886,1
634,515,515,1
635,999,999,1
636,45,45,1
637,380,380,1
638,236,236,1
639,573,573,1
640,773,773,1
641,878,878,1
642,129,129,1
643,217,217,1
644,548,548,1
645,311,311,1
646,415,415,1
647,227,227,1
648,650,650,1
649,571,571,1
650,856,856,1
651,13,13,1
652,997,997,1
653,601,601,1
654,683,683,1
655,555,555,1
656,269,269,1
657,858,858,1
658,49,49,1
659,498,498,1
660,302,302,1
661,929,929,1
662,191,191,1
663,862,862,1
664,340,340,1
665,231,231,1
666,480,480,1
667,633,633,1
668,317,317,1
669,397,397,1
670,254,254,1
671,13,13,1
672,744,744,1
673,12,12,1
674,241,241,1
675,973,973,1
676,996,996,1
677,719,719,1
678,120,120,1
679,232,232,1
680,502,502,1
681,613,613,1
682,973,973,1
683,601,601,1
684,609,609,1
685,911,911,1
686,898,898,1
687,429,429,1
688,400,400,1
689,732,732,1
690,271,271,1
691,941,941,1
692,799,799,1
693,340,340,1
694,498,498,1
695,527,527,1
696,459,459,1
697,963,963,1
698,453,453,1
699,84,84,1
700,973,973,1
701,133,133,1
702,468,468,1
703,37,37,1
704,227,227,1
705,921,921,1
706,351,351,1
707,977,977,1
708,108,108,1
709,357,357,1
710,368,368,1
711,598,598,1
712,599,599,1
713,29,29,1
714,196,196,1
715,179,179,1
716,672,672,1
717,652,652,1
718,247,247,1
719,252,252,1
720,673,673,1
721,947,947,1
722,280,280,1
723,258,258,1
724,796,796,1
725,96,96,1
726,317,317,1
727,905,905,1
728,403,403,1
729,22,22,1
730,173,173,1
731,910,910,1
732,921,921,1
733,320,320,1
734,698,698,1
735,36,36,1
736,720,720,1
737,483,483,1
738,253,253,1
739,803,803,1
740,2,2,1
741,965,965,1
742,358,358,1
743,727,727,1
744,509,509,1
745,143,143,1
746,855,855,1
747,831,831,1
748,120,120,1
749,155,155,1
750,871,871,1
751,525,525,1
752,617,617,1
753,536,536,1
754,40,40,1
755,230,230,1
756,999,999,1
757,134,134,1
758,847,847,1
759,300,300,1
760,518,518,1
761,467,467,1
762,75,75,1
763,763,763,1
764,196,196,1
765,417,417,1
766,965,965,1
767,102,102,1
768,18,18,1
769,555,555,1
770,531,531,1
771,148,148,1
772,718,718,1
773,902,902,1
774,9,9,1
775,50,50,1
776,168,168,1
777,770,770,1
778,146,146,1
779,89,89,1
780,950,950,1
781,610,610,1
782,221,221,1
783,112,112,1
784,340,340,1
785,908,908,1
786,361,361,1
787,435,435,1
788,600,600,1
789,838,838,1
790,685,685,1
791,985,985,1
792,806,806,1
793,79,79,1
794,308,308,1
795,120,120,1
796,896,896,1
797,634,634,1
798,794,794,1
799,836,836,1
800,976,976,1
801,796,796,1
802,731,731,1
803,618,618,1
804,790,790,1
805,878,878,1
806,986,986,1
807,582,582,1
808,576,576,1
809,584,584,1
810,137,137,1
811,852,852,1
812,148,148,1
813,259,259,1
814,722,722,1
815,614,614,1
816,667,667,1
817,833,833,1
818,600,600,1
819,346,346,1
820,251,251,1
821,462,462,1
822,917,917,1
823,941,941,1
824,286,286,1
825,182,182,1
826,425,425,1
827,374,374,1
828,536,536,1
829,196,196,1
830,503,503,1
831,903,903,1
832,329,329,1
833,839,839,1
834,580,580,1
835,951,951,1
836,771,771,1
837,552,552,1
838,65,65,1
839,307,307,1
840,770,770,1
841,333,333,1
842,108,108,1
843,30,30,1
844,72,72,1
845,615,615,1
846,347,347,1
847,304,304,1
848,387,387,1
849,620,620,1
850,390,390,1
851,965,965,1
852,870,870,1
853,702,702,1
854,654,654,1
855,931,931,1
856,139,139,1
857,404,404,1
858,548,548,1
859,417,417,1
860,733,733,1
861,837,837,1
862,180,180,1
863,521,521,1
864,830,830,1
865,929,929,1
866,310,310,1
867,235,235,1
868,439,439,1
869,362,362,1
870,883,883,1
871,572,572,1
872,602,602,1
873,130,130,1
874,400,400,1
875,752,752,1
876,32,32,1
877,900,900,1
878,225,225,1
879,161,161,1
880,343,343,1
881,468,468,1
882,359,359,1
883,411,411,1
884,548,548,1
885,735,735,1
886,675,675,1
887,279,279,1
888,189,189,1
889,869,869,1
890,820,820,1
891,490,490,1
892,563,563,1
893,919,919,1
894,273,273,1
895,886,886,1
896,263,263,1
897,181,181,1
898,927,927,1
899,757,757,1
900,891,891,1
901,143,143,1
902,170,170,1
903,551,551,1
904,979,979,1
905,937,937,1
906,329,329,1
907,524,524,1
908,355,355,1
909,853,853,1
910,434,434,1
911,119,119,1
912,493,493,1
913,320,320,1
914,794,794,1
915,824,824,1
916,269,269,1
917,482,482,1
918,923,923,1
919,764,764,1
920,199,199,1
921,197,197,1
922,588,588,1
923,345,345,1
924,195,195,1
925,184,184,1
926,184,184,1
927,851,851,1
928,950,950,1
929,396,396,1
930,906,906,1
931,834,834,1
932,301,301,1
933,334,334,1
934,765,765,1
935,225,225,1
936,194,194,1
937,910,910,1
938,198,198,1
939,922,922,1
940,491,491,1
941,232,232,1
942,350,350,1
943,562,562,1
944,774,774,1
945,787,787,1
946,71,71,1
947,24,24,1
948,604,604,1
949,706,706,1
950,150,150,1
951,460,460,1
952,427,427,1
953,807,807,1
954,887,887,1
955,151,151,1
956,287,287,1
957,657,657,1
958,890,890,1
959,354,354,1
960,120,120,1
961,609,609,1
962,276,276,1
963,689,689,1
964,110,110,1
965,904,904,1
966,229,229,1
967,278,278,1
968,865,865,1
969,312,312,1
970,216,216,1
971,691,691,1
972,322,322,1
973,622,622,1
974,19,19,1
975,31,31,1
976,9,9,1
977,908,908,1
978,447,447,1
979,820,820,1
980,879,879,1
981,508,508,1
982,692,692,1
983,483,483,1
984,484,484,1
985,304,304,1
986,718,718,1
987,386,386,1
988,450,450,1
989,877,877,1
990,545,545,1
991,444,444,1
992,345,345,1
993,870,870,1
994,121,121,1
995,405,405,1
996,283,283,1
997,827,827,1
998,470,470,1
999,276,276,1
1000,523,523,1
